
Gurobi 9.1.2 (win64) logging started Tue Dec  7 13:41:36 2021

Gurobi Optimizer version 9.1.2 build v9.1.2rc0 (win64)
Thread count: 8 physical cores, 8 logical processors, using up to 8 threads
Optimize a model with 1 rows, 47 columns and 46 nonzeros
Model fingerprint: 0x5c455010
Variable types: 1 continuous, 46 integer (46 binary)
Coefficient statistics:
  Matrix range     [1e+00, 1e+01]
  Objective range  [1e+00, 1e+00]
  Bounds range     [4e+01, 4e+01]
  RHS range        [1e+01, 1e+01]
Presolve time: 0.00s
Presolved: 1 rows, 47 columns, 46 nonzeros
Variable types: 1 continuous, 46 integer (46 binary)

Root simplex log...

Iteration    Objective       Primal Inf.    Dual Inf.      Time
       0   -3.9771937e+01   2.499800e-01   0.000000e+00     14s
       1   -3.9771937e+01   0.000000e+00   0.000000e+00     14s

Root relaxation: objective -3.977194e+01, 1 iterations, 0.00 seconds

    Nodes    |    Current Node    |     Objective Bounds      |     Work
 Expl Unexpl |  Obj  Depth IntInf | Incumbent    BestBd   Gap | It/Node Time

*    0     0               0     -39.7719368  -39.77194  0.00%     -   14s

Cutting planes:
  Lazy constraints: 1

Explored 0 nodes (1 simplex iterations) in 14.09 seconds
Thread count was 8 (of 8 available processors)

Solution count 1: -39.7719 
No other solutions better than -39.7719

Optimal solution found (tolerance 1.00e-04)
Best objective -3.977193683810e+01, best bound -3.977193683810e+01, gap 0.0000%

User-callback calls 67, time in user-callback 17.67 sec
